
******************************************************************************
This program contains Ipopt, a library for large-scale nonlinear optimization.
 Ipopt is released as open source code under the Eclipse Public License (EPL).
         For more information visit https://github.com/coin-or/Ipopt
******************************************************************************

This is Ipopt version 3.14.19, running with linear solver MUMPS 5.8.1.

Number of nonzeros in equality constraint Jacobian...:     4389
Number of nonzeros in inequality constraint Jacobian.:        0
Number of nonzeros in Lagrangian Hessian.............:     1050

Total number of variables............................:     1287
                     variables with only lower bounds:        0
                variables with lower and upper bounds:      457
                     variables with only upper bounds:        0
Total number of equality constraints.................:     1274
Total number of inequality constraints...............:        0
        inequality constraints with only lower bounds:        0
   inequality constraints with lower and upper bounds:        0
        inequality constraints with only upper bounds:        0

iter    objective    inf_pr   inf_du lg(mu)  ||d||  lg(rg) alpha_du alpha_pr  ls
   0  9.8480197e+00 9.90e+01 2.45e-04  -1.0 0.00e+00    -  0.00e+00 0.00e+00   0
   1  9.8842687e+00 1.24e+01 2.43e+01  -1.0 9.98e+01    -  3.81e-02 9.92e-01h  1
   2  9.8696600e+00 4.13e+00 1.03e+00  -1.0 1.70e+01    -  7.81e-01 1.00e+00h  1
   3  9.8611592e+00 4.83e+00 1.07e+00  -1.0 2.28e+01    -  9.87e-01 3.33e-01h  2
   4  9.8633206e+00 5.67e+00 5.76e-01  -1.0 2.07e+02    -  1.00e+00 5.00e-01h  2
   5  9.8617547e+00 1.67e-02 1.22e-04  -1.0 3.35e-01  -4.0 1.00e+00 1.00e+00h  1
   6  9.8613712e+00 4.75e-01 8.16e-03  -2.5 3.53e+01    -  1.00e+00 1.00e+00h  1
   7  9.8607850e+00 2.53e+00 3.71e-03  -2.5 1.20e+02    -  1.00e+00 1.00e+00h  1
   8  9.8607648e+00 2.08e-01 1.98e-02  -2.5 2.99e+02    -  1.00e+00 1.00e+00h  1
   9  9.8599605e+00 6.10e+01 2.86e-02  -2.5 2.04e+03    -  1.00e+00 1.00e+00h  1
iter    objective    inf_pr   inf_du lg(mu)  ||d||  lg(rg) alpha_du alpha_pr  ls
  10  9.8605882e+00 1.40e-04 2.77e-06  -2.5 2.34e-02  -4.5 1.00e+00 1.00e+00h  1
  11  9.8605612e+00 1.20e+00 7.79e-03  -3.8 1.28e+03    -  1.00e+00 1.00e+00h  1
  12  9.8605324e+00 1.60e+00 9.25e-03  -3.8 3.22e+03    -  1.00e+00 1.00e+00h  1
  13  9.8605263e+00 1.55e+00 1.06e-02  -3.8 6.78e+03    -  1.00e+00 1.00e+00h  1
  14  9.8605227e+00 1.84e+00 9.09e-03  -3.8 1.37e+04    -  1.00e+00 1.00e+00h  1
  15  9.8605214e+00 1.32e+00 1.25e-02  -3.8 2.77e+04    -  1.00e+00 1.00e+00h  1
  16  9.8605202e+00 2.51e+00 6.18e-03  -3.8 5.69e+04    -  1.00e+00 1.00e+00h  1
  17  9.8605201e+00 3.37e-01 2.43e-02  -3.8 1.27e+05    -  1.00e+00 1.00e+00h  1
  18  9.8605188e+00 2.77e+01 2.18e-02  -3.8 5.94e+05    -  1.00e+00 1.00e+00h  1
  19  9.8605197e+00 3.09e-11 3.70e-10  -3.8 3.33e-05  -5.0 1.00e+00 1.00e+00h  1
iter    objective    inf_pr   inf_du lg(mu)  ||d||  lg(rg) alpha_du alpha_pr  ls
  20  9.8605002e+00 1.24e+00 9.88e-03  -5.7 4.16e+05    -  8.22e-01 1.00e+00h  1
  21  9.8599945e+00 1.55e+00 1.24e-02  -5.7 1.04e+06    -  2.85e-01 1.00e+00h  1
  22  9.8598637e+00 1.56e+00 1.20e-02  -5.7 2.18e+06    -  1.00e+00 9.41e-01h  1
  23  9.8598654e+00 1.19e+00 9.38e-03  -5.7 4.11e+06    -  1.00e+00 5.57e-01h  1
  24  9.8598671e+00 1.55e+00 1.21e-02  -5.7 5.39e+06    -  1.00e+00 1.00e+00h  1
  25  9.8598654e+00 1.63e+00 1.29e-02  -5.7 1.14e+07    -  1.00e+00 1.00e+00h  1
  26  9.8598651e+00 6.11e-01 2.43e-02  -5.7 2.31e+07    -  1.00e+00 1.00e+00H  1
  27  9.8598651e+00 1.41e-01 1.78e-02  -5.7 6.57e+07    -  1.00e+00 2.50e-01h  3
  28  9.8598651e+00 1.24e-01 1.28e-02  -5.7 6.39e+07    -  1.00e+00 1.00e+00H  1
  29  9.8598651e+00 8.60e-02 1.25e-02  -5.7 1.15e+08    -  1.00e+00 1.00e+00H  1
iter    objective    inf_pr   inf_du lg(mu)  ||d||  lg(rg) alpha_du alpha_pr  ls
  30  9.8598651e+00 2.39e-02 1.36e-02  -5.7 2.30e+08    -  1.00e+00 1.00e+00H  1
  31  9.8598651e+00 7.35e-03 1.29e-02  -5.7 4.68e+08    -  1.00e+00 1.00e+00H  1
  32  9.8598651e+00 6.04e-03 1.31e-02  -5.7 9.25e+08    -  1.00e+00 1.00e+00H  1
  33  9.8598651e+00 6.04e-03 1.31e-02  -5.7 1.86e+09    -  1.00e+00 1.95e-03h 10
  34  9.8598651e+00 6.04e-03 1.31e-02  -5.7 1.86e+09    -  1.00e+00 1.95e-03h 10
  35  9.8598651e+00 6.04e-03 1.31e-02  -5.7 1.86e+09    -  1.00e+00 1.95e-03h 10
  36  9.8598651e+00 6.04e-03 1.30e-02  -5.7 1.86e+09    -  1.00e+00 1.95e-03h 10
  37  9.8598651e+00 6.03e-03 1.30e-02  -5.7 1.86e+09    -  1.00e+00 1.95e-03h 10
  38  9.8598651e+00 6.03e-03 1.30e-02  -5.7 1.86e+09    -  1.00e+00 1.95e-03h 10
  39  9.8598651e+00 6.03e-03 1.30e-02  -5.7 1.86e+09    -  1.00e+00 1.95e-03h 10
iter    objective    inf_pr   inf_du lg(mu)  ||d||  lg(rg) alpha_du alpha_pr  ls
  40  9.8598651e+00 6.03e-03 1.29e-02  -5.7 1.86e+09    -  1.00e+00 1.95e-03h 10
  41  9.8598651e+00 6.03e-03 1.29e-02  -5.7 1.87e+09    -  1.00e+00 1.95e-03h 10
  42  9.8598651e+00 6.03e-03 1.29e-02  -5.7 1.87e+09    -  1.00e+00 1.95e-03h 10
  43  9.8598651e+00 2.76e+00 5.05e-03  -5.7 1.87e+09    -  1.00e+00 1.00e+00w  1
  44  9.8598651e+00 1.19e-01 4.27e-02  -5.7 5.21e+09    -  1.00e+00 1.00e+00w  1
  45  9.8598651e+00 1.42e-14 4.44e-16  -5.7 5.25e-11  -5.4 1.00e+00 1.00e+00h  1
  46  9.8598496e+00 2.71e-01 2.75e-04  -8.6 4.79e+09    -  8.28e-01 4.66e-01f  1
  47  9.8598493e+00 4.68e-01 4.75e-04  -8.6 6.59e+09    -  1.00e+00 5.03e-01h  1
  48  9.8598493e+00 1.74e-01 2.26e-03  -8.6 9.13e+09    -  1.00e+00 1.00e+00H  1
  49  9.8598493e+00 8.94e-02 1.54e-03  -8.6 2.35e+10    -  1.00e+00 1.00e+00H  1
iter    objective    inf_pr   inf_du lg(mu)  ||d||  lg(rg) alpha_du alpha_pr  ls
  50  9.8598493e+00 7.27e-02 1.66e-03  -8.6 4.21e+10    -  1.00e+00 1.00e+00H  1
  51  9.8598493e+00 2.56e-02 1.74e-03  -8.6 8.62e+10    -  1.00e+00 1.00e+00H  1
  52  9.8598493e+00 7.08e-03 1.67e-03  -8.6 1.74e+11    -  1.00e+00 1.00e+00H  1
  53  9.8598493e+00 6.05e-03 1.70e-03  -8.6 3.45e+11    -  1.00e+00 1.00e+00H  1
  54  9.8598493e+00 6.05e-03 1.69e-03  -8.6 6.92e+11    -  1.00e+00 1.95e-03h 10
  55  9.8598493e+00 6.05e-03 1.69e-03  -8.6 6.93e+11    -  1.00e+00 1.95e-03h 10
  56  9.8598493e+00 6.05e-03 1.69e-03  -8.6 6.93e+11    -  1.00e+00 1.95e-03h 10
  57  9.8598493e+00 6.05e-03 1.68e-03  -8.6 6.93e+11    -  1.00e+00 1.95e-03h 10
  58  9.8598493e+00 6.05e-03 1.68e-03  -8.6 6.94e+11    -  1.00e+00 1.95e-03h 10
  59  9.8598493e+00 6.04e-03 1.68e-03  -8.6 6.94e+11    -  1.00e+00 1.95e-03h 10
iter    objective    inf_pr   inf_du lg(mu)  ||d||  lg(rg) alpha_du alpha_pr  ls
  60  9.8598493e+00 6.04e-03 1.67e-03  -8.6 6.94e+11    -  1.00e+00 1.95e-03h 10
  61  9.8598493e+00 6.04e-03 1.67e-03  -8.6 6.95e+11    -  1.00e+00 1.95e-03h 10
  62  9.8598493e+00 6.04e-03 1.67e-03  -8.6 6.95e+11    -  1.00e+00 1.95e-03h 10
  63  9.8598493e+00 6.03e-03 1.70e-03  -8.6 6.95e+11    -  1.00e+00 1.00e+00H  1
  64  9.8598493e+00 6.03e-03 1.69e-03  -8.6 1.40e+12    -  1.00e+00 1.95e-03h 10
  65  9.8598493e+00 6.03e-03 1.69e-03  -8.6 1.40e+12    -  1.00e+00 1.95e-03h 10
  66  9.8598493e+00 6.03e-03 1.69e-03  -8.6 1.40e+12    -  1.00e+00 1.95e-03h 10
  67  9.8598493e+00 6.03e-03 1.68e-03  -8.6 1.40e+12    -  1.00e+00 1.95e-03h 10
  68  9.8598493e+00 6.03e-03 1.68e-03  -8.6 1.40e+12    -  1.00e+00 1.95e-03h 10
  69  9.8598493e+00 6.02e-03 1.68e-03  -8.6 1.40e+12    -  1.00e+00 1.95e-03h 10
iter    objective    inf_pr   inf_du lg(mu)  ||d||  lg(rg) alpha_du alpha_pr  ls
  70  9.8598493e+00 6.02e-03 1.67e-03  -8.6 1.40e+12    -  1.00e+00 1.95e-03h 10
  71  9.8598493e+00 6.02e-03 1.67e-03  -8.6 1.40e+12    -  1.00e+00 1.95e-03h 10
  72  9.8598493e+00 6.02e-03 1.67e-03  -8.6 1.40e+12    -  1.00e+00 1.95e-03h 10
  73  9.8598493e+00 6.02e-03 1.66e-03  -8.6 1.40e+12    -  1.00e+00 1.95e-03h 10
  74  9.8598493e+00 2.76e+00 6.52e-04  -8.6 1.40e+12    -  1.00e+00 1.00e+00w  1
  75  9.8598493e+00 1.19e-01 5.51e-03  -8.6 3.92e+12    -  1.00e+00 1.00e+00w  1
  76  9.8598493e+00 1.42e-14 4.44e-16  -8.6 5.91e-14  -5.9 1.00e+00 1.00e+00h  1

Number of Iterations....: 76

                                   (scaled)                 (unscaled)
Objective...............:   9.8598493122330151e+00    9.8598493122330151e+00
Dual infeasibility......:   4.4408920985006262e-16    4.4408920985006262e-16
Constraint violation....:   1.4210854715202004e-14    1.4210854715202004e-14
Variable bound violation:   0.0000000000000000e+00    0.0000000000000000e+00
Complementarity.........:   2.5059035596800634e-09    2.5059035596800634e-09
Overall NLP error.......:   2.5059035596800634e-09    2.5059035596800634e-09


Number of objective function evaluations             = 502
Number of objective gradient evaluations             = 77
Number of equality constraint evaluations            = 502
Number of inequality constraint evaluations          = 0
Number of equality constraint Jacobian evaluations   = 77
Number of inequality constraint Jacobian evaluations = 0
Number of Lagrangian Hessian evaluations             = 76
Total seconds in IPOPT                               = 0.404

EXIT: Optimal Solution Found.
